15 4 
1913	1913	1913	1913	
393	429	460	
328	739	773	
885	462	471	
158	688	728	
243	909	970	
643	657	686	
674	164	175	
927	151	155	
184	911	911	
617	928	930	
998	134	139	
688	439	451	
217	332	344	
153	609	619	
84	102	103	
